(set-info :smt-lib-version 2.6)
(set-logic QF_NIA)
(set-info :source |AProve team, see http://aprove.informatik.rwth-aachen.de/, submitted for SMT-COMP 2014|)
(set-info :category "industrial")
(set-info :status sat)
(declare-fun b__69 () Int)
(declare-fun a__10 () Int)
(declare-fun a__7 () Int)
(declare-fun a__19 () Int)
(declare-fun a__26 () Int)
(declare-fun a__31 () Int)
(declare-fun a__35 () Int)
(declare-fun a__42 () Int)
(declare-fun a__46 () Int)
(declare-fun a__51 () Int)
(declare-fun a__58 () Int)
(declare-fun a__56 () Int)
(declare-fun b__70 () Int)
(declare-fun a__2 () Int)
(declare-fun b__71 () Int)
(declare-fun a__15 () Int)
(declare-fun a__29 () Int)
(declare-fun a__49 () Int)
(declare-fun b__72 () Int)
(declare-fun a__65 () Int)
(declare-fun a__12 () Int)
(declare-fun b__73 () Int)
(declare-fun a__22 () Int)
(declare-fun a__59 () Int)
(declare-fun b__74 () Int)
(declare-fun a__38 () Int)
(declare-fun b__75 () Int)
(declare-fun a__54 () Int)
(declare-fun b__76 () Int)
(declare-fun a__4 () Int)
(declare-fun a__8 () Int)
(declare-fun a__17 () Int)
(declare-fun a__20 () Int)
(declare-fun a__24 () Int)
(declare-fun a__27 () Int)
(declare-fun a__32 () Int)
(declare-fun a__33 () Int)
(declare-fun a__36 () Int)
(declare-fun a__40 () Int)
(declare-fun a__43 () Int)
(declare-fun a__44 () Int)
(declare-fun a__47 () Int)
(declare-fun a__52 () Int)
(declare-fun a__61 () Int)
(declare-fun a__63 () Int)
(declare-fun a__5 () Int)
(declare-fun a__11 () Int)
(declare-fun a__3 () Int)
(declare-fun a__64 () Int)
(declare-fun a__66 () Int)
(declare-fun a__67 () Int)
(declare-fun a__6 () Int)
(declare-fun a__13 () Int)
(declare-fun a__14 () Int)
(declare-fun a__16 () Int)
(declare-fun a__18 () Int)
(declare-fun a__21 () Int)
(declare-fun a__23 () Int)
(declare-fun a__25 () Int)
(declare-fun a__28 () Int)
(declare-fun a__30 () Int)
(declare-fun a__34 () Int)
(declare-fun a__37 () Int)
(declare-fun a__39 () Int)
(declare-fun a__41 () Int)
(declare-fun a__45 () Int)
(declare-fun a__48 () Int)
(declare-fun a__50 () Int)
(declare-fun a__53 () Int)
(declare-fun a__55 () Int)
(declare-fun a__57 () Int)
(declare-fun a__60 () Int)
(declare-fun a__62 () Int)
(declare-fun a__68 () Int)
(declare-fun a__1 () Int)
(declare-fun a__9 () Int)
(assert (and (>= (+ 1 (* (- 0 1) b__69)) 0) (= (+ (* b__69 a__10 a__7) (* (- 0 1) (* a__10 a__7))) 0) (= (+ (* b__69 a__10 a__19) (* (- 0 1) (* a__10 a__19))) 0) (= (+ (* b__69 a__10 a__26) (* (- 0 1) (* a__10 a__26))) 0) (= (+ (* b__69 a__10 a__31) (* (- 0 1) (* a__10 a__31))) 0) (= (+ (* b__69 a__10 a__35) (* (- 0 1) (* a__10 a__35))) 0) (= (+ (* b__69 a__10 a__42) (* (- 0 1) (* a__10 a__42))) 0) (= (+ (* b__69 a__10 a__46) (* (- 0 1) (* a__10 a__46))) 0) (= (+ (* b__69 a__10 a__51) (* (- 0 1) (* a__10 a__51))) 0) (= (+ (* b__69 a__10 a__58) (* (- 0 1) (* a__10 a__58))) 0) (= (+ (* b__69 a__10 a__56) (* (- 0 1) (* a__10 a__56))) 0) (>= (+ 1 (* (- 0 1) b__70)) 0) (= (+ (* b__70 a__10) (* (- 0 1) a__10)) 0) (= (+ (* b__70 a__2) (* (- 0 1) a__2)) 0) (>= (+ 1 (* (- 0 1) b__71)) 0) (= (+ (* b__71 a__10) (* (- 0 1) a__10)) 0) (= (+ (* b__71 a__2 a__15) (* (- 0 1) (* a__2 a__15))) 0) (= (+ (* b__71 a__2 a__29) (* (- 0 1) (* a__2 a__29))) 0) (= (+ (* b__71 a__2 a__49) (* (- 0 1) (* a__2 a__49))) 0) (= (+ (* b__71 a__2 a__51 a__58) (* (- 0 1) (* a__2 a__51 a__58))) 0) (>= (+ 1 (* (- 0 1) b__72)) 0) (= (+ (* b__72 a__2) (* (- 0 1) a__2)) 0) (= (+ (* b__72 a__10 a__7 a__65) (* (- 0 1) (* a__10 a__7 a__65))) 0) (= (+ (* b__72 a__10 a__7 a__12) (* (- 0 1) (* a__10 a__7 a__12))) 0) (= (+ (* b__72 a__10 a__19 a__65) (* (- 0 1) (* a__10 a__19 a__65))) 0) (= (+ (* b__72 a__10 a__19 a__12) (* (- 0 1) (* a__10 a__19 a__12))) 0) (= (+ (* b__72 a__10 a__26 a__65) (* (- 0 1) (* a__10 a__26 a__65))) 0) (= (+ (* b__72 a__10 a__26 a__12) (* (- 0 1) (* a__10 a__26 a__12))) 0) (= (+ (* b__72 a__10 a__31 a__65) (* (- 0 1) (* a__10 a__31 a__65))) 0) (= (+ (* b__72 a__10 a__31 a__12) (* (- 0 1) (* a__10 a__31 a__12))) 0) (= (+ (* b__72 a__10 a__35 a__65) (* (- 0 1) (* a__10 a__35 a__65))) 0) (= (+ (* b__72 a__10 a__35 a__12) (* (- 0 1) (* a__10 a__35 a__12))) 0) (= (+ (* b__72 a__10 a__42 a__65) (* (- 0 1) (* a__10 a__42 a__65))) 0) (= (+ (* b__72 a__10 a__42 a__12) (* (- 0 1) (* a__10 a__42 a__12))) 0) (= (+ (* b__72 a__10 a__46 a__65) (* (- 0 1) (* a__10 a__46 a__65))) 0) (= (+ (* b__72 a__10 a__46 a__12) (* (- 0 1) (* a__10 a__46 a__12))) 0) (= (+ (* b__72 a__10 a__51 a__65) (* (- 0 1) (* a__10 a__51 a__65))) 0) (= (+ (* b__72 a__10 a__51 a__12) (* (- 0 1) (* a__10 a__51 a__12))) 0) (= (+ (* b__72 a__10 a__65 a__58) (* (- 0 1) (* a__10 a__65 a__58))) 0) (= (+ (* b__72 a__10 a__65 a__56) (* (- 0 1) (* a__10 a__65 a__56))) 0) (= (+ (* b__72 a__10 a__58 a__12) (* (- 0 1) (* a__10 a__58 a__12))) 0) (= (+ (* b__72 a__10 a__56 a__12) (* (- 0 1) (* a__10 a__56 a__12))) 0) (>= (+ 1 (* (- 0 1) b__73)) 0) (= (+ (* b__73 a__10) (* (- 0 1) a__10)) 0) (= (+ (* b__73 a__2 a__22) (* (- 0 1) (* a__2 a__22))) 0) (= (+ (* b__73 a__2 a__35) (* (- 0 1) (* a__2 a__35))) 0) (= (+ (* b__73 a__2 a__46) (* (- 0 1) (* a__2 a__46))) 0) (= (+ (* b__73 a__2 a__51 a__58 a__59) (* (- 0 1) (* a__2 a__51 a__58 a__59))) 0) (>= (+ 1 (* (- 0 1) b__74)) 0) (= (+ (* b__74 a__10) (* (- 0 1) a__10)) 0) (= (+ (* b__74 a__2 a__38) (* (- 0 1) (* a__2 a__38))) 0) (>= (+ 1 (* (- 0 1) b__75)) 0) (= (+ (* b__75 a__10) (* (- 0 1) a__10)) 0) (= (+ (* b__75 a__2 a__54) (* (- 0 1) (* a__2 a__54))) 0) (>= (+ 1 (* (- 0 1) b__76)) 0) (= (+ (* b__76 a__10 a__7 a__65) (* (- 0 1) (* a__10 a__7 a__65))) 0) (= (+ (* b__76 a__10 a__19 a__65) (* (- 0 1) (* a__10 a__19 a__65))) 0) (= (+ (* b__76 a__10 a__26 a__65) (* (- 0 1) (* a__10 a__26 a__65))) 0) (= (+ (* b__76 a__10 a__31 a__65) (* (- 0 1) (* a__10 a__31 a__65))) 0) (= (+ (* b__76 a__10 a__35 a__65) (* (- 0 1) (* a__10 a__35 a__65))) 0) (= (+ (* b__76 a__10 a__42 a__65) (* (- 0 1) (* a__10 a__42 a__65))) 0) (= (+ (* b__76 a__10 a__46 a__65) (* (- 0 1) (* a__10 a__46 a__65))) 0) (= (+ (* b__76 a__10 a__51 a__65) (* (- 0 1) (* a__10 a__51 a__65))) 0) (= (+ (* b__76 a__10 a__65 a__58) (* (- 0 1) (* a__10 a__65 a__58))) 0) (= (+ (* b__76 a__10 a__65 a__56) (* (- 0 1) (* a__10 a__65 a__56))) 0) (>= (+ (* a__4 a__2) (* (- 0 1) a__2)) 0) (>= (+ (* a__7 a__2) (* (- 0 1) (* a__12 a__7 a__10))) 0) (>= (+ (* a__8 a__2) (* (- 0 1) (* a__8 a__10))) 0) (>= (+ (* a__8 a__10) (* (- 0 1) (* a__17 a__15 a__2))) 0) (>= (+ (* a__7 a__2) (* (- 0 1) a__2)) 0) (>= (+ (* a__15 a__2) (* (- 0 1) a__2)) 0) (>= (+ (* a__17 a__2) (* (- 0 1) (* a__17 a__10))) 0) (>= (+ (* a__20 a__10) (* (- 0 1) (* a__24 a__22 a__2))) 0) (>= (+ (* a__19 a__2) (* (- 0 1) (* a__12 a__19 a__10))) 0) (>= (+ (* a__20 a__2) (* (- 0 1) (* a__20 a__10))) 0) (>= (+ (* a__27 a__10) (* (- 0 1) (* a__17 a__29 a__2))) 0) (>= (+ (* a__19 a__2) (* (- 0 1) a__2)) 0) (>= (+ (* a__22 a__2) (* (- 0 1) a__2)) 0) (>= (+ (* a__24 a__2) (* (- 0 1) (* a__24 a__10))) 0) (>= (+ (* a__32 a__10) (* (- 0 1) (* a__24 a__35 a__2))) 0) (>= (+ (* a__33 a__10) (* (- 0 1) (* a__36 a__2))) 0) (>= (+ (* a__26 a__2) (* (- 0 1) (* a__12 a__26 a__10))) 0) (>= (+ (* a__27 a__2) (* (- 0 1) (* a__27 a__10))) 0) (>= (+ (* a__36 a__10) (* (- 0 1) (* a__40 a__38 a__2))) 0) (>= (+ (* a__31 a__2) (* (- 0 1) (* a__12 a__31 a__10))) 0) (>= (+ (* a__32 a__2) (* (- 0 1) (* a__32 a__10))) 0) (>= (+ (* a__33 a__2) (* (- 0 1) (* a__33 a__10))) 0) (>= (+ (* a__43 a__10) (* (- 0 1) (* a__24 a__46 a__2))) 0) (>= (+ (* a__44 a__10) (* (- 0 1) (* a__47 a__2))) 0) (>= (+ (* a__35 a__2) (* (- 0 1) (* a__12 a__35 a__10))) 0) (>= (+ (* a__36 a__2) (* (- 0 1) (* a__36 a__10))) 0) (>= (+ (* a__47 a__10) (* (- 0 1) (* a__17 a__49 a__2))) 0) (>= (+ (* a__38 a__2) (* (- 0 1) a__2)) 0) (>= (+ (* a__40 a__2) (* (- 0 1) (* a__40 a__10))) 0) (>= (+ (* a__52 a__10) (* (- 0 1) (* a__56 a__54 a__2))) 0) (>= (+ (* a__42 a__2) (* (- 0 1) (* a__12 a__42 a__10))) 0) (>= (+ (* a__43 a__2) (* (- 0 1) (* a__43 a__10))) 0) (>= (+ (* a__44 a__2) (* (- 0 1) (* a__44 a__10))) 0) (>= (+ (* a__59 a__10) (* (- 0 1) a__2)) 0) (>= (+ (* a__42 a__2) (* (- 0 1) a__2)) 0) (>= (+ (* a__46 a__2) (* (- 0 1) (* a__12 a__46 a__10))) 0) (>= (+ (* a__47 a__2) (* (- 0 1) (* a__47 a__10))) 0) (>= (+ (* a__56 a__24 a__10) (* (- 0 1) (* a__61 a__7 a__2)) (* (- 0 1) (* a__8 a__2))) 0) (>= (+ (* a__46 a__2) (* (- 0 1) a__2)) 0) (>= (+ (* a__49 a__2) (* (- 0 1) a__2)) 0) (>= (+ (* a__51 a__2) (* (- 0 1) (* a__12 a__51 a__10))) 0) (>= (+ (* a__52 a__2) (* (- 0 1) (* a__52 a__10))) 0) (>= (+ (* a__54 a__24 a__10) (* (- 0 1) (* a__63 a__19 a__2)) (* (- 0 1) (* a__20 a__2))) 0) (>= (+ (* a__54 a__2) (* (- 0 1) a__2)) 0) (>= (+ (* a__56 a__2) (* (- 0 1) (* a__12 a__56 a__10))) 0) (>= (+ (* a__40 a__10) (* (- 0 1) (* a__61 a__26 a__2)) (* (- 0 1) (* a__27 a__2))) 0) (>= (+ (* a__58 a__2) (* (- 0 1) (* a__12 a__58 a__10))) 0) (>= (+ (* a__59 a__2) (* (- 0 1) (* a__59 a__10))) 0) (>= (+ (* a__4 a__40 a__10) (* (- 0 1) (* a__63 a__58 a__31 a__2)) (* (- 0 1) (* a__32 a__2))) 0) (>= (+ (* a__5 a__40 a__10) (* (- 0 1) (* a__61 a__59 a__31 a__2)) (* (- 0 1) (* a__33 a__2))) 0) (>= (+ (* a__58 a__2) (* (- 0 1) a__2)) 0) (>= (+ (* a__61 a__2) (* (- 0 1) (* a__61 a__10))) 0) (>= (+ (* a__4 a__61 a__10) (* (- 0 1) (* a__63 a__58 a__2))) 0) (>= (+ (* a__5 a__61 a__10) (* (- 0 1) (* a__61 a__59 a__2))) 0) (>= (+ (* a__63 a__2) (* (- 0 1) (* a__63 a__10))) 0) (>= (+ (* a__56 a__63 a__10) (* (- 0 1) (* a__61 a__2))) 0) (>= (+ (* a__54 a__63 a__10) (* (- 0 1) (* a__63 a__2))) 0) (>= (+ (* a__4 a__17 a__10) (* (- 0 1) (* a__63 a__58 a__42 a__2)) (* (- 0 1) (* a__43 a__2))) 0) (>= (+ (* a__5 a__17 a__10) (* (- 0 1) (* a__61 a__59 a__42 a__2)) (* (- 0 1) (* a__44 a__2))) 0) (>= (+ (* a__4 a__56 a__10) (* (- 0 1) (* a__24 a__58 a__59 a__51 a__2)) (* (- 0 1) (* a__63 a__59 a__59 a__51 a__2))) 0) (>= (+ (* a__5 a__56 a__10) (* (- 0 1) (* a__17 a__58 a__58 a__51 a__2)) (* (- 0 1) (* a__61 a__59 a__58 a__51 a__2)) (* (- 0 1) (* a__52 a__2))) 0) (>= (+ (* b__69 a__11) (* b__69 a__3 a__12) (* (- 0 1) (* b__69 a__64)) (* (- 0 1) (* b__69 a__3 a__65)) (* (- 0 1) (* b__69 a__11 a__4 a__65))) 0) (>= (+ (* b__69 a__4 a__12) (* (- 0 1) (* b__69 a__12 a__4 a__65))) 0) (>= (+ (* b__69 a__5 a__12) (* (- 0 1) (* b__69 a__5 a__65))) 0) (>= (+ (* b__69 a__64) (* b__69 a__66 a__65) (* (- 0 1) (* b__69 a__11)) (* (- 0 1) (* b__69 a__3 a__12)) (* (- 0 1) (* b__69 a__67 a__4 a__12)) (* (- 0 1) (* b__69 a__66 a__5 a__12))) 0) (>= (+ (* b__69 a__64) (* b__69 a__6 a__65) (* b__69 a__13 a__7 a__65) (* (- 0 1) (* b__69 a__11)) (* (- 0 1) (* b__69 a__14 a__12)) (* (- 0 1) (* b__69 a__16 a__15 a__12))) 0) (>= (+ (* b__69 a__8 a__65) (* (- 0 1) (* b__69 a__17 a__15 a__12))) 0) (>= (+ (* b__69 a__11) (* b__69 a__66 a__12) (* (- 0 1) (* b__69 a__64)) (* (- 0 1) (* b__69 a__66 a__65))) 0) (>= (+ (* b__69 a__11) (* b__69 a__6 a__12) (* (- 0 1) (* b__69 a__64)) (* (- 0 1) (* b__69 a__6 a__65)) (* (- 0 1) (* b__69 a__11 a__7 a__65))) 0) (>= (+ (* b__69 a__7 a__12) (* (- 0 1) (* b__69 a__12 a__7 a__65))) 0) (>= (+ (* b__69 a__8 a__12) (* (- 0 1) (* b__69 a__8 a__65))) 0) (>= (+ (* b__69 a__64) (* b__69 a__18 a__65) (* b__69 a__13 a__19 a__65) (* (- 0 1) (* b__69 a__11)) (* (- 0 1) (* b__69 a__21 a__12)) (* (- 0 1) (* b__69 a__23 a__22 a__12))) 0) (>= (+ (* b__69 a__20 a__65) (* (- 0 1) (* b__69 a__24 a__22 a__12))) 0) (>= (+ (* b__69 a__11) (* b__69 a__14 a__12) (* (- 0 1) (* b__69 a__64)) (* (- 0 1) (* b__69 a__14 a__65)) (* (- 0 1) (* b__69 a__11 a__15 a__65))) 0) (>= (+ (* b__69 a__15 a__12) (* (- 0 1) (* b__69 a__12 a__15 a__65))) 0) (>= (+ (* b__69 a__64) (* b__69 a__25 a__65) (* b__69 a__13 a__26 a__65) (* (- 0 1) (* b__69 a__11)) (* (- 0 1) (* b__69 a__28 a__12)) (* (- 0 1) (* b__69 a__16 a__29 a__12))) 0) (>= (+ (* b__69 a__27 a__65) (* (- 0 1) (* b__69 a__17 a__29 a__12))) 0) (>= (+ (* b__69 a__11) (* b__69 a__16 a__12) (* (- 0 1) (* b__69 a__64)) (* (- 0 1) (* b__69 a__16 a__65))) 0) (>= (+ (* b__69 a__17 a__12) (* (- 0 1) (* b__69 a__17 a__65))) 0) (>= (+ (* b__69 a__64) (* b__69 a__30 a__65) (* b__69 a__13 a__31 a__65) (* (- 0 1) (* b__69 a__11)) (* (- 0 1) (* b__69 a__34 a__12)) (* (- 0 1) (* b__69 a__23 a__35 a__12))) 0) (>= (+ (* b__69 a__32 a__65) (* (- 0 1) (* b__69 a__24 a__35 a__12))) 0) (>= (+ (* b__69 a__33 a__65) (* (- 0 1) (* b__69 a__36 a__12))) 0) (>= (+ (* b__69 a__11) (* b__69 a__18 a__12) (* (- 0 1) (* b__69 a__64)) (* (- 0 1) (* b__69 a__18 a__65)) (* (- 0 1) (* b__69 a__11 a__19 a__65))) 0) (>= (+ (* b__69 a__19 a__12) (* (- 0 1) (* b__69 a__12 a__19 a__65))) 0) (>= (+ (* b__69 a__20 a__12) (* (- 0 1) (* b__69 a__20 a__65))) 0) (>= (+ (* b__69 a__64) (* b__69 a__34 a__65) (* b__69 a__13 a__35 a__65) (* (- 0 1) (* b__69 a__11)) (* (- 0 1) (* b__69 a__37 a__12)) (* (- 0 1) (* b__69 a__39 a__38 a__12))) 0) (>= (+ (* b__69 a__36 a__65) (* (- 0 1) (* b__69 a__40 a__38 a__12))) 0) (>= (+ (* b__69 a__11) (* b__69 a__21 a__12) (* (- 0 1) (* b__69 a__64)) (* (- 0 1) (* b__69 a__21 a__65)) (* (- 0 1) (* b__69 a__11 a__22 a__65))) 0) (>= (+ (* b__69 a__22 a__12) (* (- 0 1) (* b__69 a__12 a__22 a__65))) 0) (>= (+ (* b__69 a__64) (* b__69 a__41 a__65) (* b__69 a__13 a__42 a__65) (* (- 0 1) (* b__69 a__11)) (* (- 0 1) (* b__69 a__45 a__12)) (* (- 0 1) (* b__69 a__23 a__46 a__12))) 0) (>= (+ (* b__69 a__43 a__65) (* (- 0 1) (* b__69 a__24 a__46 a__12))) 0) (>= (+ (* b__69 a__44 a__65) (* (- 0 1) (* b__69 a__47 a__12))) 0) (>= (+ (* b__69 a__11) (* b__69 a__23 a__12) (* (- 0 1) (* b__69 a__64)) (* (- 0 1) (* b__69 a__23 a__65))) 0) (>= (+ (* b__69 a__24 a__12) (* (- 0 1) (* b__69 a__24 a__65))) 0) (>= (+ (* b__69 a__64) (* b__69 a__45 a__65) (* b__69 a__13 a__46 a__65) (* (- 0 1) (* b__69 a__11)) (* (- 0 1) (* b__69 a__48 a__12)) (* (- 0 1) (* b__69 a__16 a__49 a__12))) 0) (>= (+ (* b__69 a__47 a__65) (* (- 0 1) (* b__69 a__17 a__49 a__12))) 0) (>= (+ (* b__69 a__11) (* b__69 a__25 a__12) (* (- 0 1) (* b__69 a__64)) (* (- 0 1) (* b__69 a__25 a__65)) (* (- 0 1) (* b__69 a__11 a__26 a__65))) 0) (>= (+ (* b__69 a__26 a__12) (* (- 0 1) (* b__69 a__12 a__26 a__65))) 0) (>= (+ (* b__69 a__27 a__12) (* (- 0 1) (* b__69 a__27 a__65))) 0) (>= (+ (* b__69 a__64) (* b__69 a__50 a__65) (* b__69 a__13 a__51 a__65) (* (- 0 1) (* b__69 a__11)) (* (- 0 1) (* b__69 a__53 a__12)) (* (- 0 1) (* b__69 a__55 a__54 a__12))) 0) (>= (+ (* b__69 a__52 a__65) (* (- 0 1) (* b__69 a__56 a__54 a__12))) 0) (>= (+ (* b__69 a__11) (* b__69 a__28 a__12) (* (- 0 1) (* b__69 a__64)) (* (- 0 1) (* b__69 a__28 a__65)) (* (- 0 1) (* b__69 a__11 a__29 a__65))) 0) (>= (+ (* b__69 a__29 a__12) (* (- 0 1) (* b__69 a__12 a__29 a__65))) 0) (>= (+ (* b__69 a__64) (* b__69 a__57 a__65) (* b__69 a__13 a__58 a__65) (* (- 0 1) (* b__69 a__11))) 0) (>= (+ (* b__69 a__59 a__65) (* (- 0 1) (* b__69 a__12))) 0) (>= (+ (* b__69 a__11) (* b__69 a__30 a__12) (* (- 0 1) (* b__69 a__64)) (* (- 0 1) (* b__69 a__30 a__65)) (* (- 0 1) (* b__69 a__11 a__31 a__65))) 0) (>= (+ (* b__69 a__31 a__12) (* (- 0 1) (* b__69 a__12 a__31 a__65))) 0) (>= (+ (* b__69 a__32 a__12) (* (- 0 1) (* b__69 a__32 a__65))) 0) (>= (+ (* b__69 a__33 a__12) (* (- 0 1) (* b__69 a__33 a__65))) 0) (>= (+ (* b__69 a__64) (* b__69 a__23 a__65) (* b__69 a__55 a__24 a__65) (* (- 0 1) (* b__69 a__11)) (* (- 0 1) (* b__69 a__6 a__12)) (* (- 0 1) (* b__69 a__60 a__7 a__12))) 0) (>= (+ (* b__69 a__56 a__24 a__65) (* (- 0 1) (* b__69 a__61 a__7 a__12)) (* (- 0 1) (* b__69 a__8 a__12))) 0) (>= (+ (* b__69 a__11) (* b__69 a__34 a__12) (* (- 0 1) (* b__69 a__64)) (* (- 0 1) (* b__69 a__34 a__65)) (* (- 0 1) (* b__69 a__11 a__35 a__65))) 0) (>= (+ (* b__69 a__35 a__12) (* (- 0 1) (* b__69 a__12 a__35 a__65))) 0) (>= (+ (* b__69 a__36 a__12) (* (- 0 1) (* b__69 a__36 a__65))) 0) (>= (+ (* b__69 a__64) (* b__69 a__23 a__65) (* b__69 a__53 a__24 a__65) (* (- 0 1) (* b__69 a__11)) (* (- 0 1) (* b__69 a__18 a__12)) (* (- 0 1) (* b__69 a__62 a__19 a__12))) 0) (>= (+ (* b__69 a__54 a__24 a__65) (* (- 0 1) (* b__69 a__63 a__19 a__12)) (* (- 0 1) (* b__69 a__20 a__12))) 0) (>= (+ (* b__69 a__11) (* b__69 a__37 a__12) (* (- 0 1) (* b__69 a__64)) (* (- 0 1) (* b__69 a__37 a__65)) (* (- 0 1) (* b__69 a__11 a__38 a__65))) 0) (>= (+ (* b__69 a__38 a__12) (* (- 0 1) (* b__69 a__12 a__38 a__65))) 0) (>= (+ (* b__69 a__64) (* b__69 a__39 a__65) (* (- 0 1) (* b__69 a__11)) (* (- 0 1) (* b__69 a__25 a__12)) (* (- 0 1) (* b__69 a__60 a__26 a__12))) 0) (>= (+ (* b__69 a__40 a__65) (* (- 0 1) (* b__69 a__61 a__26 a__12)) (* (- 0 1) (* b__69 a__27 a__12))) 0) (>= (+ (* b__69 a__11) (* b__69 a__39 a__12) (* (- 0 1) (* b__69 a__64)) (* (- 0 1) (* b__69 a__39 a__65))) 0) (>= (+ (* b__69 a__40 a__12) (* (- 0 1) (* b__69 a__40 a__65))) 0) (>= (+ (* b__69 a__64) (* b__69 a__39 a__65) (* b__69 a__3 a__40 a__65) (* (- 0 1) (* b__69 a__11)) (* (- 0 1) (* b__69 a__30 a__12)) (* (- 0 1) (* b__69 a__57 a__31 a__12)) (* (- 0 1) (* b__69 a__62 a__58 a__31 a__12)) (* (- 0 1) (* b__69 a__60 a__59 a__31 a__12))) 0) (>= (+ (* b__69 a__4 a__40 a__65) (* (- 0 1) (* b__69 a__63 a__58 a__31 a__12)) (* (- 0 1) (* b__69 a__32 a__12))) 0) (>= (+ (* b__69 a__5 a__40 a__65) (* (- 0 1) (* b__69 a__61 a__59 a__31 a__12)) (* (- 0 1) (* b__69 a__33 a__12))) 0) (>= (+ (* b__69 a__11) (* b__69 a__41 a__12) (* (- 0 1) (* b__69 a__64)) (* (- 0 1) (* b__69 a__41 a__65)) (* (- 0 1) (* b__69 a__11 a__42 a__65))) 0) (>= (+ (* b__69 a__42 a__12) (* (- 0 1) (* b__69 a__12 a__42 a__65))) 0) (>= (+ (* b__69 a__43 a__12) (* (- 0 1) (* b__69 a__43 a__65))) 0) (>= (+ (* b__69 a__44 a__12) (* (- 0 1) (* b__69 a__44 a__65))) 0) (>= (+ (* b__69 a__64) (* b__69 a__60 a__65) (* b__69 a__3 a__61 a__65) (* (- 0 1) (* b__69 a__11)) (* (- 0 1) (* b__69 a__57 a__12)) (* (- 0 1) (* b__69 a__62 a__58 a__12)) (* (- 0 1) (* b__69 a__60 a__59 a__12))) 0) (>= (+ (* b__69 a__4 a__61 a__65) (* (- 0 1) (* b__69 a__63 a__58 a__12))) 0) (>= (+ (* b__69 a__5 a__61 a__65) (* (- 0 1) (* b__69 a__61 a__59 a__12))) 0) (>= (+ (* b__69 a__11) (* b__69 a__45 a__12) (* (- 0 1) (* b__69 a__64)) (* (- 0 1) (* b__69 a__45 a__65)) (* (- 0 1) (* b__69 a__11 a__46 a__65))) 0) (>= (+ (* b__69 a__46 a__12) (* (- 0 1) (* b__69 a__12 a__46 a__65))) 0) (>= (+ (* b__69 a__47 a__12) (* (- 0 1) (* b__69 a__47 a__65))) 0) (>= (+ (* b__69 a__64) (* b__69 a__62 a__65) (* b__69 a__55 a__63 a__65) (* (- 0 1) (* b__69 a__11)) (* (- 0 1) (* b__69 a__60 a__12))) 0) (>= (+ (* b__69 a__56 a__63 a__65) (* (- 0 1) (* b__69 a__61 a__12))) 0) (>= (+ (* b__69 a__11) (* b__69 a__48 a__12) (* (- 0 1) (* b__69 a__64)) (* (- 0 1) (* b__69 a__48 a__65)) (* (- 0 1) (* b__69 a__11 a__49 a__65))) 0) (>= (+ (* b__69 a__49 a__12) (* (- 0 1) (* b__69 a__12 a__49 a__65))) 0) (>= (+ (* b__69 a__64) (* b__69 a__62 a__65) (* b__69 a__53 a__63 a__65) (* (- 0 1) (* b__69 a__11)) (* (- 0 1) (* b__69 a__62 a__12))) 0) (>= (+ (* b__69 a__54 a__63 a__65) (* (- 0 1) (* b__69 a__63 a__12))) 0) (>= (+ (* b__69 a__11) (* b__69 a__50 a__12) (* (- 0 1) (* b__69 a__64)) (* (- 0 1) (* b__69 a__50 a__65)) (* (- 0 1) (* b__69 a__11 a__51 a__65))) 0) (>= (+ (* b__69 a__51 a__12) (* (- 0 1) (* b__69 a__12 a__51 a__65))) 0) (>= (+ (* b__69 a__52 a__12) (* (- 0 1) (* b__69 a__52 a__65))) 0) (>= (+ (* b__69 a__64) (* b__69 a__16 a__65) (* b__69 a__3 a__17 a__65) (* (- 0 1) (* b__69 a__11)) (* (- 0 1) (* b__69 a__41 a__12)) (* (- 0 1) (* b__69 a__57 a__42 a__12)) (* (- 0 1) (* b__69 a__62 a__58 a__42 a__12)) (* (- 0 1) (* b__69 a__60 a__59 a__42 a__12))) 0) (>= (+ (* b__69 a__4 a__17 a__65) (* (- 0 1) (* b__69 a__63 a__58 a__42 a__12)) (* (- 0 1) (* b__69 a__43 a__12))) 0) (>= (+ (* b__69 a__5 a__17 a__65) (* (- 0 1) (* b__69 a__61 a__59 a__42 a__12)) (* (- 0 1) (* b__69 a__44 a__12))) 0) (>= (+ (* b__69 a__11) (* b__69 a__53 a__12) (* (- 0 1) (* b__69 a__64)) (* (- 0 1) (* b__69 a__53 a__65)) (* (- 0 1) (* b__69 a__11 a__54 a__65))) 0) (>= (+ (* b__69 a__54 a__12) (* (- 0 1) (* b__69 a__12 a__54 a__65))) 0) (>= (+ (* b__69 a__64) (* b__69 a__55 a__65) (* b__69 a__3 a__56 a__65) (* (- 0 1) (* b__69 a__11)) (* (- 0 1) (* b__69 a__50 a__12)) (* (- 0 1) (* b__69 a__57 a__51 a__12)) (* (- 0 1) (* b__69 a__57 a__58 a__51 a__12)) (* (- 0 1) (* b__69 a__16 a__58 a__58 a__51 a__12)) (* (- 0 1) (* b__69 a__60 a__59 a__58 a__51 a__12)) (* (- 0 1) (* b__69 a__57 a__59 a__51 a__12)) (* (- 0 1) (* b__69 a__23 a__58 a__59 a__51 a__12)) (* (- 0 1) (* b__69 a__62 a__59 a__59 a__51 a__12))) 0) (>= (+ (* b__69 a__4 a__56 a__65) (* (- 0 1) (* b__69 a__24 a__58 a__59 a__51 a__12)) (* (- 0 1) (* b__69 a__63 a__59 a__59 a__51 a__12))) 0) (>= (+ (* b__69 a__5 a__56 a__65) (* (- 0 1) (* b__69 a__17 a__58 a__58 a__51 a__12)) (* (- 0 1) (* b__69 a__61 a__59 a__58 a__51 a__12)) (* (- 0 1) (* b__69 a__52 a__12))) 0) (>= (+ (* b__69 a__11) (* b__69 a__55 a__12) (* (- 0 1) (* b__69 a__64)) (* (- 0 1) (* b__69 a__55 a__65)) (* (- 0 1) (* b__69 a__11 a__56 a__65))) 0) (>= (+ (* b__69 a__56 a__12) (* (- 0 1) (* b__69 a__12 a__56 a__65))) 0) (>= (+ (* b__69 a__11) (* b__69 a__57 a__12) (* (- 0 1) (* b__69 a__64)) (* (- 0 1) (* b__69 a__57 a__65)) (* (- 0 1) (* b__69 a__11 a__58 a__65))) 0) (>= (+ (* b__69 a__58 a__12) (* (- 0 1) (* b__69 a__12 a__58 a__65))) 0) (>= (+ (* b__69 a__59 a__12) (* (- 0 1) (* b__69 a__59 a__65))) 0) (>= (+ (* b__69 a__11) (* b__69 a__60 a__12) (* (- 0 1) (* b__69 a__64)) (* (- 0 1) (* b__69 a__60 a__65))) 0) (>= (+ (* b__69 a__61 a__12) (* (- 0 1) (* b__69 a__61 a__65))) 0) (>= (+ (* b__69 a__11) (* b__69 a__62 a__12) (* (- 0 1) (* b__69 a__64)) (* (- 0 1) (* b__69 a__62 a__65))) 0) (>= (+ (* b__69 a__63 a__12) (* (- 0 1) (* b__69 a__63 a__65))) 0) (>= (+ (* b__69 a__11) (* b__69 a__67 a__12) (* (- 0 1) (* b__69 a__64)) (* (- 0 1) (* b__69 a__67 a__65))) 0) (>= (+ (* b__69 a__11) (* b__69 a__13 a__12) (* (- 0 1) (* b__69 a__64)) (* (- 0 1) (* b__69 a__13 a__65))) 0) (>= (+ (* b__69 a__11) (* b__69 a__68 a__12) (* (- 0 1) (* b__69 a__64)) (* (- 0 1) (* b__69 a__68 a__65))) 0) (>= (+ (* b__70 a__12 a__8) (* (- 0 1) (* b__70 a__8))) 0) (>= (+ (* b__70 a__12 a__7) (* (- 0 1) (* b__70 a__7))) 0) (>= (+ (* b__70 a__65 a__7) (* (- 0 1) (* b__70 a__7))) 0) (>= (+ (* b__70 a__65 a__8) (* (- 0 1) (* b__70 a__8))) 0) (>= (+ (* b__71 a__65 a__17) (* (- 0 1) (* b__71 a__17))) 0) (>= (+ (* b__71 a__12 a__17) (* (- 0 1) (* b__71 a__17))) 0) (>= (+ (* b__72 a__65 a__15) (* (- 0 1) (* b__72 a__15))) 0) (>= (+ (* b__72 a__12 a__15) (* (- 0 1) (* b__72 a__15))) 0) (>= (+ (* b__73 a__65 a__24) (* (- 0 1) (* b__73 a__24))) 0) (>= (+ (* b__73 a__12 a__24) (* (- 0 1) (* b__73 a__24))) 0) (>= (+ (* b__72 a__65 a__22) (* (- 0 1) (* b__72 a__22))) 0) (>= (+ (* b__72 a__12 a__22) (* (- 0 1) (* b__72 a__22))) 0) (>= (+ (* b__70 a__12 a__20) (* (- 0 1) (* b__70 a__20))) 0) (>= (+ (* b__70 a__12 a__19) (* (- 0 1) (* b__70 a__19))) 0) (>= (+ (* b__70 a__65 a__19) (* (- 0 1) (* b__70 a__19))) 0) (>= (+ (* b__70 a__65 a__20) (* (- 0 1) (* b__70 a__20))) 0) (>= (+ (* b__72 a__65 a__29) (* (- 0 1) (* b__72 a__29))) 0) (>= (+ (* b__72 a__12 a__29) (* (- 0 1) (* b__72 a__29))) 0) (>= (+ (* b__70 a__12 a__36) (* (- 0 1) (* b__70 a__36))) 0) (>= (+ (* b__70 a__12 a__35) (* (- 0 1) (* b__70 a__35))) 0) (>= (+ (* b__70 a__65 a__35) (* (- 0 1) (* b__70 a__35))) 0) (>= (+ (* b__70 a__65 a__36) (* (- 0 1) (* b__70 a__36))) 0) (>= (+ (* b__70 a__12 a__27) (* (- 0 1) (* b__70 a__27))) 0) (>= (+ (* b__70 a__12 a__26) (* (- 0 1) (* b__70 a__26))) 0) (>= (+ (* b__70 a__65 a__26) (* (- 0 1) (* b__70 a__26))) 0) (>= (+ (* b__70 a__65 a__27) (* (- 0 1) (* b__70 a__27))) 0) (>= (+ (* b__74 a__65 a__40) (* (- 0 1) (* b__74 a__40))) 0) (>= (+ (* b__74 a__12 a__40) (* (- 0 1) (* b__74 a__40))) 0) (>= (+ (* b__72 a__65 a__38) (* (- 0 1) (* b__72 a__38))) 0) (>= (+ (* b__72 a__12 a__38) (* (- 0 1) (* b__72 a__38))) 0) (>= (+ (* b__70 a__12 a__32) (* (- 0 1) (* b__70 a__32))) 0) (>= (+ (* b__70 a__12 a__31) (* (- 0 1) (* b__70 a__31))) 0) (>= (+ (* b__70 a__12 a__33) (* (- 0 1) (* b__70 a__33))) 0) (>= (+ (* b__70 a__65 a__31) (* (- 0 1) (* b__70 a__31))) 0) (>= (+ (* b__70 a__65 a__32) (* (- 0 1) (* b__70 a__32))) 0) (>= (+ (* b__70 a__65 a__33) (* (- 0 1) (* b__70 a__33))) 0) (>= (+ (* b__70 a__12 a__47) (* (- 0 1) (* b__70 a__47))) 0) (>= (+ (* b__70 a__12 a__46) (* (- 0 1) (* b__70 a__46))) 0) (>= (+ (* b__70 a__65 a__46) (* (- 0 1) (* b__70 a__46))) 0) (>= (+ (* b__70 a__65 a__47) (* (- 0 1) (* b__70 a__47))) 0) (>= (+ (* b__72 a__65 a__49) (* (- 0 1) (* b__72 a__49))) 0) (>= (+ (* b__72 a__12 a__49) (* (- 0 1) (* b__72 a__49))) 0) (>= (+ (* b__75 a__65 a__56) (* (- 0 1) (* b__75 a__56))) 0) (>= (+ (* b__75 a__12 a__56) (* (- 0 1) (* b__75 a__56))) 0) (>= (+ (* b__72 a__65 a__54) (* (- 0 1) (* b__72 a__54))) 0) (>= (+ (* b__72 a__12 a__54) (* (- 0 1) (* b__72 a__54))) 0) (>= (+ (* b__70 a__12 a__43) (* (- 0 1) (* b__70 a__43))) 0) (>= (+ (* b__70 a__12 a__42) (* (- 0 1) (* b__70 a__42))) 0) (>= (+ (* b__70 a__12 a__44) (* (- 0 1) (* b__70 a__44))) 0) (>= (+ (* b__70 a__65 a__42) (* (- 0 1) (* b__70 a__42))) 0) (>= (+ (* b__70 a__65 a__43) (* (- 0 1) (* b__70 a__43))) 0) (>= (+ (* b__70 a__65 a__44) (* (- 0 1) (* b__70 a__44))) 0) (>= (+ (* b__70 a__65 a__61) (* (- 0 1) (* b__70 a__61))) 0) (>= (+ (* b__70 a__12 a__61) (* (- 0 1) (* b__70 a__61))) 0) (>= (+ (* b__70 a__12 a__52) (* (- 0 1) (* b__70 a__52))) 0) (>= (+ (* b__70 a__12 a__51) (* (- 0 1) (* b__70 a__51))) 0) (>= (+ (* b__70 a__65 a__51) (* (- 0 1) (* b__70 a__51))) 0) (>= (+ (* b__70 a__65 a__52) (* (- 0 1) (* b__70 a__52))) 0) (>= (+ (* b__70 a__65 a__63) (* (- 0 1) (* b__70 a__63))) 0) (>= (+ (* b__70 a__12 a__63) (* (- 0 1) (* b__70 a__63))) 0) (>= (+ (* b__70 a__12 a__59) (* (- 0 1) (* b__70 a__59))) 0) (>= (+ (* b__70 a__12 a__58) (* (- 0 1) (* b__70 a__58))) 0) (>= (+ (* b__70 a__65 a__58) (* (- 0 1) (* b__70 a__58))) 0) (>= (+ (* b__70 a__65 a__59) (* (- 0 1) (* b__70 a__59))) 0) (>= (+ (* b__76 a__12 a__5) (* (- 0 1) (* b__76 a__5))) 0) (>= (+ (* b__76 a__12 a__4) (* (- 0 1) (* b__76 a__4))) 0) (>= (+ (* b__76 a__65 a__4) (* (- 0 1) (* b__76 a__4))) 0) (>= (+ (* b__76 a__65 a__5) (* (- 0 1) (* b__76 a__5))) 0) (>= (+ (* b__69 a__64) (* b__69 a__14 a__65) (* b__69 a__13 a__15 a__65) (* (- 0 1) (* b__69 a__11)) (* (- 0 1) (* b__69 a__13 a__12))) 0) (>= (+ (* b__69 a__64) (* b__69 a__21 a__65) (* b__69 a__13 a__22 a__65) (* (- 0 1) (* b__69 a__11)) (* (- 0 1) (* b__69 a__13 a__12))) 0) (>= (+ (* b__69 a__64) (* b__69 a__28 a__65) (* b__69 a__13 a__29 a__65) (* (- 0 1) (* b__69 a__11)) (* (- 0 1) (* b__69 a__13 a__12))) 0) (>= (+ (* b__69 a__64) (* b__69 a__37 a__65) (* b__69 a__13 a__38 a__65) (* (- 0 1) (* b__69 a__11)) (* (- 0 1) (* b__69 a__13 a__12))) 0) (>= (+ (* b__69 a__64) (* b__69 a__48 a__65) (* b__69 a__13 a__49 a__65) (* (- 0 1) (* b__69 a__11)) (* (- 0 1) (* b__69 a__13 a__12))) 0) (>= (+ (* b__69 a__64) (* b__69 a__23 a__65) (* b__69 a__67 a__24 a__65) (* (- 0 1) (* b__69 a__11)) (* (- 0 1) (* b__69 a__13 a__12))) 0) (>= (+ (* b__69 a__64) (* b__69 a__39 a__65) (* b__69 a__66 a__40 a__65) (* (- 0 1) (* b__69 a__11)) (* (- 0 1) (* b__69 a__13 a__12))) 0) (>= (+ (* b__69 a__64) (* b__69 a__60 a__65) (* b__69 a__68 a__61 a__65) (* (- 0 1) (* b__69 a__11)) (* (- 0 1) (* b__69 a__13 a__12))) 0) (>= (+ (* b__69 a__64) (* b__69 a__60 a__65) (* b__69 a__66 a__61 a__65) (* (- 0 1) (* b__69 a__11)) (* (- 0 1) (* b__69 a__13 a__12))) 0) (>= (+ (* b__69 a__64) (* b__69 a__62 a__65) (* b__69 a__67 a__63 a__65) (* (- 0 1) (* b__69 a__11)) (* (- 0 1) (* b__69 a__13 a__12))) 0) (>= (+ (* b__69 a__64) (* b__69 a__16 a__65) (* b__69 a__68 a__17 a__65) (* (- 0 1) (* b__69 a__11)) (* (- 0 1) (* b__69 a__13 a__12))) 0) (>= (+ (* b__69 a__64) (* b__69 a__55 a__65) (* b__69 a__68 a__56 a__65) (* (- 0 1) (* b__69 a__11)) (* (- 0 1) (* b__69 a__67 a__12))) 0) (>= (* a__3 a__2) 0) (>= (+ a__1 (* a__6 a__2) (* (- 0 1) a__9) (* (- 0 1) (* a__6 a__10)) (* (- 0 1) (* a__11 a__7 a__10))) 0) (>= (+ a__9 (* a__6 a__10) (* a__13 a__7 a__10) (* (- 0 1) a__1) (* (- 0 1) (* a__14 a__2)) (* (- 0 1) (* a__16 a__15 a__2))) 0) (>= (* a__6 a__2) 0) (>= (* a__14 a__2) 0) (>= (+ a__1 (* a__16 a__2) (* (- 0 1) a__9) (* (- 0 1) (* a__16 a__10))) 0) (>= (+ a__9 (* a__18 a__10) (* a__13 a__19 a__10) (* (- 0 1) a__1) (* (- 0 1) (* a__21 a__2)) (* (- 0 1) (* a__23 a__22 a__2))) 0) (>= (+ a__1 (* a__18 a__2) (* (- 0 1) a__9) (* (- 0 1) (* a__18 a__10)) (* (- 0 1) (* a__11 a__19 a__10))) 0) (>= (+ a__9 (* a__25 a__10) (* a__13 a__26 a__10) (* (- 0 1) a__1) (* (- 0 1) (* a__28 a__2)) (* (- 0 1) (* a__16 a__29 a__2))) 0) (>= (* a__18 a__2) 0) (>= (* a__21 a__2) 0) (>= (+ a__1 (* a__23 a__2) (* (- 0 1) a__9) (* (- 0 1) (* a__23 a__10))) 0) (>= (+ a__9 (* a__30 a__10) (* a__13 a__31 a__10) (* (- 0 1) a__1) (* (- 0 1) (* a__34 a__2)) (* (- 0 1) (* a__23 a__35 a__2))) 0) (>= (+ a__1 (* a__25 a__2) (* (- 0 1) a__9) (* (- 0 1) (* a__25 a__10)) (* (- 0 1) (* a__11 a__26 a__10))) 0) (>= (+ a__9 (* a__34 a__10) (* a__13 a__35 a__10) (* (- 0 1) a__1) (* (- 0 1) (* a__37 a__2)) (* (- 0 1) (* a__39 a__38 a__2))) 0) (>= (+ a__1 (* a__30 a__2) (* (- 0 1) a__9) (* (- 0 1) (* a__30 a__10)) (* (- 0 1) (* a__11 a__31 a__10))) 0) (>= (+ a__9 (* a__41 a__10) (* a__13 a__42 a__10) (* (- 0 1) a__1) (* (- 0 1) (* a__45 a__2)) (* (- 0 1) (* a__23 a__46 a__2))) 0) (>= (+ a__1 (* a__34 a__2) (* (- 0 1) a__9) (* (- 0 1) (* a__34 a__10)) (* (- 0 1) (* a__11 a__35 a__10))) 0) (>= (+ a__9 (* a__45 a__10) (* a__13 a__46 a__10) (* (- 0 1) a__1) (* (- 0 1) (* a__48 a__2)) (* (- 0 1) (* a__16 a__49 a__2))) 0) (>= (* a__37 a__2) 0) (>= (+ a__1 (* a__39 a__2) (* (- 0 1) a__9) (* (- 0 1) (* a__39 a__10))) 0) (>= (+ a__9 (* a__50 a__10) (* a__13 a__51 a__10) (* (- 0 1) a__1) (* (- 0 1) (* a__53 a__2)) (* (- 0 1) (* a__55 a__54 a__2))) 0) (>= (+ a__1 (* a__41 a__2) (* (- 0 1) a__9) (* (- 0 1) (* a__41 a__10)) (* (- 0 1) (* a__11 a__42 a__10))) 0) (>= (+ a__9 (* a__57 a__10) (* a__13 a__58 a__10) (* (- 0 1) a__1)) 0) (>= (* a__41 a__2) 0) (>= (+ a__1 (* a__45 a__2) (* (- 0 1) a__9) (* (- 0 1) (* a__45 a__10)) (* (- 0 1) (* a__11 a__46 a__10))) 0) (>= (+ a__9 (* a__23 a__10) (* a__55 a__24 a__10) (* (- 0 1) a__1) (* (- 0 1) (* a__6 a__2)) (* (- 0 1) (* a__60 a__7 a__2))) 0) (>= (* a__45 a__2) 0) (>= (* a__48 a__2) 0) (>= (+ a__1 (* a__50 a__2) (* (- 0 1) a__9) (* (- 0 1) (* a__50 a__10)) (* (- 0 1) (* a__11 a__51 a__10))) 0) (>= (+ a__9 (* a__23 a__10) (* a__53 a__24 a__10) (* (- 0 1) a__1) (* (- 0 1) (* a__18 a__2)) (* (- 0 1) (* a__62 a__19 a__2))) 0) (>= (* a__53 a__2) 0) (>= (+ a__1 (* a__55 a__2) (* (- 0 1) a__9) (* (- 0 1) (* a__55 a__10)) (* (- 0 1) (* a__11 a__56 a__10))) 0) (>= (+ a__9 (* a__39 a__10) (* (- 0 1) a__1) (* (- 0 1) (* a__25 a__2)) (* (- 0 1) (* a__60 a__26 a__2))) 0) (>= (+ a__1 (* a__57 a__2) (* (- 0 1) a__9) (* (- 0 1) (* a__57 a__10)) (* (- 0 1) (* a__11 a__58 a__10))) 0) (>= (+ a__9 (* a__39 a__10) (* a__3 a__40 a__10) (* (- 0 1) a__1) (* (- 0 1) (* a__30 a__2)) (* (- 0 1) (* a__57 a__31 a__2)) (* (- 0 1) (* a__62 a__58 a__31 a__2)) (* (- 0 1) (* a__60 a__59 a__31 a__2))) 0) (>= (* a__57 a__2) 0) (>= (+ a__1 (* a__60 a__2) (* (- 0 1) a__9) (* (- 0 1) (* a__60 a__10))) 0) (>= (+ a__9 (* a__60 a__10) (* a__3 a__61 a__10) (* (- 0 1) a__1) (* (- 0 1) (* a__57 a__2)) (* (- 0 1) (* a__62 a__58 a__2)) (* (- 0 1) (* a__60 a__59 a__2))) 0) (>= (+ a__1 (* a__62 a__2) (* (- 0 1) a__9) (* (- 0 1) (* a__62 a__10))) 0) (>= (+ a__9 (* a__62 a__10) (* a__55 a__63 a__10) (* (- 0 1) a__1) (* (- 0 1) (* a__60 a__2))) 0) (>= (+ a__9 (* a__62 a__10) (* a__53 a__63 a__10) (* (- 0 1) a__1) (* (- 0 1) (* a__62 a__2))) 0) (>= (+ a__9 (* a__16 a__10) (* a__3 a__17 a__10) (* (- 0 1) a__1) (* (- 0 1) (* a__41 a__2)) (* (- 0 1) (* a__57 a__42 a__2)) (* (- 0 1) (* a__62 a__58 a__42 a__2)) (* (- 0 1) (* a__60 a__59 a__42 a__2))) 0) (>= (+ a__9 (* a__55 a__10) (* a__3 a__56 a__10) (* (- 0 1) a__1) (* (- 0 1) (* a__50 a__2)) (* (- 0 1) (* a__57 a__51 a__2)) (* (- 0 1) (* a__57 a__58 a__51 a__2)) (* (- 0 1) (* a__16 a__58 a__58 a__51 a__2)) (* (- 0 1) (* a__60 a__59 a__58 a__51 a__2)) (* (- 0 1) (* a__57 a__59 a__51 a__2)) (* (- 0 1) (* a__23 a__58 a__59 a__51 a__2)) (* (- 0 1) (* a__62 a__59 a__59 a__51 a__2))) 0) (not (and (= (* a__3 a__2) 0) (= (+ a__1 (* a__6 a__2) (* (- 0 1) a__9) (* (- 0 1) (* a__6 a__10)) (* (- 0 1) (* a__11 a__7 a__10))) 0) (= (+ a__9 (* a__6 a__10) (* a__13 a__7 a__10) (* (- 0 1) a__1) (* (- 0 1) (* a__14 a__2)) (* (- 0 1) (* a__16 a__15 a__2))) 0) (= (* a__6 a__2) 0) (= (* a__14 a__2) 0) (= (+ a__1 (* a__16 a__2) (* (- 0 1) a__9) (* (- 0 1) (* a__16 a__10))) 0) (= (+ a__9 (* a__18 a__10) (* a__13 a__19 a__10) (* (- 0 1) a__1) (* (- 0 1) (* a__21 a__2)) (* (- 0 1) (* a__23 a__22 a__2))) 0) (= (+ a__1 (* a__18 a__2) (* (- 0 1) a__9) (* (- 0 1) (* a__18 a__10)) (* (- 0 1) (* a__11 a__19 a__10))) 0) (= (+ a__9 (* a__25 a__10) (* a__13 a__26 a__10) (* (- 0 1) a__1) (* (- 0 1) (* a__28 a__2)) (* (- 0 1) (* a__16 a__29 a__2))) 0) (= (* a__18 a__2) 0) (= (* a__21 a__2) 0) (= (+ a__1 (* a__23 a__2) (* (- 0 1) a__9) (* (- 0 1) (* a__23 a__10))) 0) (= (+ a__9 (* a__30 a__10) (* a__13 a__31 a__10) (* (- 0 1) a__1) (* (- 0 1) (* a__34 a__2)) (* (- 0 1) (* a__23 a__35 a__2))) 0) (= (+ a__1 (* a__25 a__2) (* (- 0 1) a__9) (* (- 0 1) (* a__25 a__10)) (* (- 0 1) (* a__11 a__26 a__10))) 0) (= (+ a__9 (* a__34 a__10) (* a__13 a__35 a__10) (* (- 0 1) a__1) (* (- 0 1) (* a__37 a__2)) (* (- 0 1) (* a__39 a__38 a__2))) 0) (= (+ a__1 (* a__30 a__2) (* (- 0 1) a__9) (* (- 0 1) (* a__30 a__10)) (* (- 0 1) (* a__11 a__31 a__10))) 0) (= (+ a__9 (* a__41 a__10) (* a__13 a__42 a__10) (* (- 0 1) a__1) (* (- 0 1) (* a__45 a__2)) (* (- 0 1) (* a__23 a__46 a__2))) 0) (= (+ a__1 (* a__34 a__2) (* (- 0 1) a__9) (* (- 0 1) (* a__34 a__10)) (* (- 0 1) (* a__11 a__35 a__10))) 0) (= (+ a__9 (* a__45 a__10) (* a__13 a__46 a__10) (* (- 0 1) a__1) (* (- 0 1) (* a__48 a__2)) (* (- 0 1) (* a__16 a__49 a__2))) 0) (= (* a__37 a__2) 0) (= (+ a__1 (* a__39 a__2) (* (- 0 1) a__9) (* (- 0 1) (* a__39 a__10))) 0) (= (+ a__9 (* a__50 a__10) (* a__13 a__51 a__10) (* (- 0 1) a__1) (* (- 0 1) (* a__53 a__2)) (* (- 0 1) (* a__55 a__54 a__2))) 0) (= (+ a__1 (* a__41 a__2) (* (- 0 1) a__9) (* (- 0 1) (* a__41 a__10)) (* (- 0 1) (* a__11 a__42 a__10))) 0) (= (+ a__9 (* a__57 a__10) (* a__13 a__58 a__10) (* (- 0 1) a__1)) 0) (= (* a__41 a__2) 0) (= (+ a__1 (* a__45 a__2) (* (- 0 1) a__9) (* (- 0 1) (* a__45 a__10)) (* (- 0 1) (* a__11 a__46 a__10))) 0) (= (+ a__9 (* a__23 a__10) (* a__55 a__24 a__10) (* (- 0 1) a__1) (* (- 0 1) (* a__6 a__2)) (* (- 0 1) (* a__60 a__7 a__2))) 0) (= (* a__45 a__2) 0) (= (* a__48 a__2) 0) (= (+ a__1 (* a__50 a__2) (* (- 0 1) a__9) (* (- 0 1) (* a__50 a__10)) (* (- 0 1) (* a__11 a__51 a__10))) 0) (= (+ a__9 (* a__23 a__10) (* a__53 a__24 a__10) (* (- 0 1) a__1) (* (- 0 1) (* a__18 a__2)) (* (- 0 1) (* a__62 a__19 a__2))) 0) (= (* a__53 a__2) 0) (= (+ a__1 (* a__55 a__2) (* (- 0 1) a__9) (* (- 0 1) (* a__55 a__10)) (* (- 0 1) (* a__11 a__56 a__10))) 0) (= (+ a__9 (* a__39 a__10) (* (- 0 1) a__1) (* (- 0 1) (* a__25 a__2)) (* (- 0 1) (* a__60 a__26 a__2))) 0) (= (+ a__1 (* a__57 a__2) (* (- 0 1) a__9) (* (- 0 1) (* a__57 a__10)) (* (- 0 1) (* a__11 a__58 a__10))) 0) (= (+ a__9 (* a__39 a__10) (* a__3 a__40 a__10) (* (- 0 1) a__1) (* (- 0 1) (* a__30 a__2)) (* (- 0 1) (* a__57 a__31 a__2)) (* (- 0 1) (* a__62 a__58 a__31 a__2)) (* (- 0 1) (* a__60 a__59 a__31 a__2))) 0) (= (* a__57 a__2) 0) (= (+ a__1 (* a__60 a__2) (* (- 0 1) a__9) (* (- 0 1) (* a__60 a__10))) 0) (= (+ a__9 (* a__60 a__10) (* a__3 a__61 a__10) (* (- 0 1) a__1) (* (- 0 1) (* a__57 a__2)) (* (- 0 1) (* a__62 a__58 a__2)) (* (- 0 1) (* a__60 a__59 a__2))) 0) (= (+ a__1 (* a__62 a__2) (* (- 0 1) a__9) (* (- 0 1) (* a__62 a__10))) 0) (= (+ a__9 (* a__62 a__10) (* a__55 a__63 a__10) (* (- 0 1) a__1) (* (- 0 1) (* a__60 a__2))) 0) (= (+ a__9 (* a__62 a__10) (* a__53 a__63 a__10) (* (- 0 1) a__1) (* (- 0 1) (* a__62 a__2))) 0) (= (+ a__9 (* a__16 a__10) (* a__3 a__17 a__10) (* (- 0 1) a__1) (* (- 0 1) (* a__41 a__2)) (* (- 0 1) (* a__57 a__42 a__2)) (* (- 0 1) (* a__62 a__58 a__42 a__2)) (* (- 0 1) (* a__60 a__59 a__42 a__2))) 0) (= (+ a__9 (* a__55 a__10) (* a__3 a__56 a__10) (* (- 0 1) a__1) (* (- 0 1) (* a__50 a__2)) (* (- 0 1) (* a__57 a__51 a__2)) (* (- 0 1) (* a__57 a__58 a__51 a__2)) (* (- 0 1) (* a__16 a__58 a__58 a__51 a__2)) (* (- 0 1) (* a__60 a__59 a__58 a__51 a__2)) (* (- 0 1) (* a__57 a__59 a__51 a__2)) (* (- 0 1) (* a__23 a__58 a__59 a__51 a__2)) (* (- 0 1) (* a__62 a__59 a__59 a__51 a__2))) 0))) (>= b__69 0) (>= 1 b__69) (>= a__10 0) (>= a__7 0) (>= a__19 0) (>= a__26 0) (>= a__31 0) (>= a__35 0) (>= a__42 0) (>= a__46 0) (>= a__51 0) (>= a__58 0) (>= a__56 0) (>= b__70 0) (>= 1 b__70) (>= a__2 0) (>= b__71 0) (>= 1 b__71) (>= a__15 0) (>= a__29 0) (>= a__49 0) (>= b__72 0) (>= 1 b__72) (>= a__65 0) (>= a__12 0) (>= b__73 0) (>= 1 b__73) (>= a__22 0) (>= a__59 0) (>= b__74 0) (>= 1 b__74) (>= a__38 0) (>= b__75 0) (>= 1 b__75) (>= a__54 0) (>= b__76 0) (>= 1 b__76) (>= a__4 0) (>= a__8 0) (>= a__17 0) (>= a__20 0) (>= a__24 0) (>= a__27 0) (>= a__32 0) (>= a__33 0) (>= a__36 0) (>= a__40 0) (>= a__43 0) (>= a__44 0) (>= a__47 0) (>= a__52 0) (>= a__61 0) (>= a__63 0) (>= a__5 0) (>= a__11 0) (>= a__3 0) (>= a__64 0) (>= a__66 0) (>= a__67 0) (>= a__6 0) (>= a__13 0) (>= a__14 0) (>= a__16 0) (>= a__18 0) (>= a__21 0) (>= a__23 0) (>= a__25 0) (>= a__28 0) (>= a__30 0) (>= a__34 0) (>= a__37 0) (>= a__39 0) (>= a__41 0) (>= a__45 0) (>= a__48 0) (>= a__50 0) (>= a__53 0) (>= a__55 0) (>= a__57 0) (>= a__60 0) (>= a__62 0) (>= a__68 0) (>= a__1 0) (>= a__9 0)))
(check-sat)
;;(get-assignment)
;;(get-model)
(exit)
